162
10000
4384
6598
8041
9480
5769
3408
2072
1959
3607
2354
3657
7295
3909
2908
6376
3451
6343
3624
3140
3680
3040
4605
4228
9326
548
44
674
8888
2450
490
5055
3161
3883
6578
6637
367
1500
483
3863
8113
3959
3767
1100
6527
910
3422
5214
4945
354
4258
6355
1276
7574
3594
8074
567
715
520
6860
1227
6731
1203
283
9433
1752
2302
6909
1916
5042
162
756
9633
9517
674
3248
6079
758
3387
7347
6752
1112
2262
5367
5483
9729
241
1651
5575
9241
9625
2327
6989
2683
759
5853
1487
3357
523
1291
2434
1331
3921
1811
3970
4489
818
5627
6030
198
3259
596
4
901
603
5369
6960
4786
9956
4124
3084
1186
6741
2016
2555
5519
1887
2270
1648
575
4147
7698
2124
3091
3016
2639
2425
4227
4517
1653
5161
3363
375
1230
2670
1205
3465
6320
8770
6678
271
3850
212
6041
3011
1926
750
4910
1020
2991
3439
3269
2223
